Route #1: 19 58 98 138 139 140 180 179 219 220 221 222 223 224 184 144 145 146 147 107 67 27 26 25
Route #2: 20 60 59 99 100 101 102 142 141 181 182 183 143 103 104 105 106 66 65 64 63 62 61 21 22 23 24
Route #3: 29 28 68 108 148 188 187 186 185 225 226 227 228 229 230 190 189 149 150 110 109 69 70 30
Route #4: 32 72 112 113 114 115 155 154 153 152 192 193 194 195 235 234 233 232 231 191 151 111 71 31
Route #5: 34 33 73 74 75 76 77 117 116 156 196 236 237 238 198 197 157 158 159 160 120 119 118 78 79 80 1 2 3
Route #6: 4 44 43 42 82 122 162 163 164 204 203 202 201 240 239 199 200 161 121 81 41 40 39 38 37 36 35
Route #7: 6 7 48 47 46 86 87 88 128 127 126 166 167 168 208 207 206 205 165 125 124 123 83 84 85 45 5
Route #8: 10 50 90 91 92 132 131 130 170 171 172 173 174 175 176 136 135 134 133 93 53 52 51 11 12
Route #9: 18 17 57 97 137 177 178 218 217 216 215 214 213 212 211 210 209 169 129 89 49 9 8
Route #10: 13 14 54 94 95 96 56 55 15 16
Cost 5793.21
